<number of tasks>
50

<cycle time>
1000

<order strength>
0.595


<task times>
1 245
2 245
3 61
4 242
5 132
6 200
7 51
8 96
9 192
10 210
11 100
12 174
13 116
14 153
15 67
16 75
17 208
18 293
19 36
20 80
21 146
22 137
23 235
24 86
25 154
26 50
27 55
28 203
29 44
30 291
31 96
32 56
33 196
34 194
35 64
36 267
37 80
38 133
39 110
40 73
41 69
42 88
43 113
44 331
45 175
46 119
47 127
48 139
49 24
50 150

<precedence relations>
1,5
1,6
1,7
2,5
2,8
3,8
3,10
4,10
5,9
6,9
6,10
7,9
7,10
8,9
9,11
9,12
9,13
9,14
10,21
12,17
13,15
13,16
13,27
14,15
14,16
15,20
15,21
16,21
17,18
17,19
17,22
17,24
17,26
18,27
18,28
19,49
20,24
21,23
21,24
21,26
21,44
22,25
23,29
23,40
24,28
25,29
25,30
25,38
27,31
27,47
27,48
28,32
28,33
28,34
29,35
29,37
30,31
30,34
30,36
31,42
31,44
31,45
32,38
33,41
34,39
34,40
34,49
35,41
35,42
35,43
37,39
38,47
39,48
40,46
42,46
43,50
45,49

<end>
